c description: Perfect Matching Principle on 
c generator: CNFgen (0.9.0)
c copyright: (C) 2012-2020 Massimo Lauria <massimo.lauria@uniroma1.it>
c url: https://massimolauria.net/cnfgen
c
p cnf 40 169
-1 -2 0
-1 -3 0
-2 -3 0
1 2 3 0
-4 -5 0
-4 -6 0
-4 -7 0
-4 -8 0
-5 -6 0
-5 -7 0
-5 -8 0
-6 -7 0
-6 -8 0
-7 -8 0
4 5 6 7 8 0
9 0
-1 -10 0
-1 -11 0
-1 -12 0
-10 -11 0
-10 -12 0
-11 -12 0
1 10 11 12 0
-4 -13 0
-4 -14 0
-4 -15 0
-4 -16 0
-13 -14 0
-13 -15 0
-13 -16 0
-14 -15 0
-14 -16 0
-15 -16 0
4 13 14 15 16 0
-2 -10 0
-2 -13 0
-2 -17 0
-2 -18 0
-10 -13 0
-10 -17 0
-10 -18 0
-13 -17 0
-13 -18 0
-17 -18 0
2 10 13 17 18 0
-11 -19 0
-11 -20 0
-11 -21 0
-11 -22 0
-11 -23 0
-19 -20 0
-19 -21 0
-19 -22 0
-19 -23 0
-20 -21 0
-20 -22 0
-20 -23 0
-21 -22 0
-21 -23 0
-22 -23 0
11 19 20 21 22 23 0
-24 -25 0
24 25 0
-14 -26 0
-14 -27 0
-14 -28 0
-26 -27 0
-26 -28 0
-27 -28 0
14 26 27 28 0
-17 -19 0
-17 -24 0
-17 -26 0
-17 -29 0
-17 -30 0
-19 -24 0
-19 -26 0
-19 -29 0
-19 -30 0
-24 -26 0
-24 -29 0
-24 -30 0
-26 -29 0
-26 -30 0
-29 -30 0
17 19 24 26 29 30 0
-5 -27 0
-5 -31 0
-27 -31 0
5 27 31 0
-6 -20 0
-6 -29 0
-6 -32 0
-20 -29 0
-20 -32 0
-29 -32 0
6 20 29 32 0
0
-3 -7 0
-3 -21 0
-3 -33 0
-3 -34 0
-3 -35 0
-7 -21 0
-7 -33 0
-7 -34 0
-7 -35 0
-21 -33 0
-21 -34 0
-21 -35 0
-33 -34 0
-33 -35 0
-34 -35 0
3 7 21 33 34 35 0
-15 -22 0
-15 -30 0
-15 -33 0
-22 -30 0
-22 -33 0
-30 -33 0
15 22 30 33 0
-32 -34 0
-32 -36 0
-32 -37 0
-32 -38 0
-34 -36 0
-34 -37 0
-34 -38 0
-36 -37 0
-36 -38 0
-37 -38 0
32 34 36 37 38 0
-9 -36 0
-9 -39 0
-36 -39 0
9 36 39 0
-8 -12 0
-8 -16 0
-8 -18 0
-8 -31 0
-8 -37 0
-8 -40 0
-12 -16 0
-12 -18 0
-12 -31 0
-12 -37 0
-12 -40 0
-16 -18 0
-16 -31 0
-16 -37 0
-16 -40 0
-18 -31 0
-18 -37 0
-18 -40 0
-31 -37 0
-31 -40 0
-37 -40 0
8 12 16 18 31 37 40 0
-23 -25 0
-23 -28 0
-23 -35 0
-25 -28 0
-25 -35 0
-28 -35 0
23 25 28 35 0
-38 -39 0
-38 -40 0
-39 -40 0
38 39 40 0